p cnf 82 186
a 8 2 15 9 3 16 1 7 14 21 28 32 45 36 40 50 54 60 0
d 65 8 9 0
d 55 45 50 0
d 41 8 9 0
d 76 54 60 0
d 46 36 40 0
d 61 15 16 0
d 4 2 3 0
d 5 1 2 3 0
d 6 1 2 3 0
d 10 8 9 0
d 11 7 8 9 0
d 12 7 8 9 0
d 13 1 2 3 7 8 9 0
d 17 15 16 0
d 18 14 15 16 0
d 19 14 15 16 0
d 20 1 2 3 7 8 9 14 15 16 0
d 22 1 7 0
d 23 2 3 0
d 24 1 7 2 3 0
d 25 21 1 7 2 3 0
d 26 21 1 7 2 3 0
d 27 1 2 3 7 8 9 14 15 16 21 0
d 29 28 2 3 0
d 30 28 2 3 0
d 31 1 2 3 7 8 9 14 15 16 21 28 0
d 33 32 15 16 0
d 34 32 15 16 0
d 35 1 2 3 7 8 9 14 15 16 21 28 32 0
d 37 36 28 0
d 38 36 28 0
d 39 1 2 3 7 8 9 14 15 16 21 28 32 36 0
d 42 40 8 9 0
d 43 40 8 9 0
d 44 1 2 3 7 8 9 14 15 16 21 28 32 36 40 0
d 47 45 36 40 0
d 48 45 36 40 0
d 49 1 2 3 7 8 9 14 15 16 21 28 32 36 40 45 0
d 51 50 2 3 0
d 52 50 2 3 0
d 53 1 2 3 7 8 9 14 15 16 21 28 32 36 40 45 50 0
d 56 32 45 50 0
d 57 54 32 45 50 0
d 58 54 32 45 50 0
d 59 1 2 3 7 8 9 14 15 16 21 28 32 36 40 45 50 54 0
d 62 60 15 16 0
d 63 60 15 16 0
d 64 1 2 3 7 8 9 14 15 16 21 28 32 36 40 45 50 54 60 0
d 66 8 9 0
d 67 8 9 0
d 68 28 8 9 0
d 69 1 7 0
d 70 28 8 9 1 7 0
d 71 8 9 28 1 7 0
d 72 32 45 50 0
d 73 14 21 0
d 74 32 45 50 14 21 0
d 75 8 9 28 1 7 32 45 50 14 21 0
d 77 14 21 0
d 78 15 16 0
d 79 14 21 15 16 0
d 80 54 60 14 21 15 16 0
d 81 8 9 28 1 7 32 45 50 14 21 54 60 15 16 0
d 82 1 2 3 7 8 9 14 15 16 21 28 32 36 40 45 50 54 60 0
4 -2 3 0
4 2 -3 0
-4 -2 -3 0
-4 2 3 0
5 -1 -4 0
5 1 4 0
-5 -1 4 0
-5 1 -4 0
6 5 0
-6 -5 0
10 -8 9 0
10 8 -9 0
-10 -8 -9 0
-10 8 9 0
11 -7 -10 0
11 7 10 0
-11 -7 10 0
-11 7 -10 0
12 11 0
-12 -11 0
13 -6 0
13 -12 0
-13 6 12 0
17 -15 16 0
17 15 -16 0
-17 -15 -16 0
-17 15 16 0
18 -14 -17 0
18 14 17 0
-18 -14 17 0
-18 14 -17 0
19 18 0
-19 -18 0
20 -13 0
20 -19 0
-20 13 19 0
-22 1 0
-22 7 0
22 -1 -7 0
-23 2 0
-23 3 0
23 -2 -3 0
24 -22 0
24 -23 0
-24 22 23 0
25 -21 -24 0
25 21 24 0
-25 -21 24 0
-25 21 -24 0
26 25 0
-26 -25 0
27 -20 0
27 -26 0
-27 20 26 0
29 -28 -23 0
29 28 23 0
-29 -28 23 0
-29 28 -23 0
30 29 0
-30 -29 0
31 -27 0
31 -30 0
-31 27 30 0
33 -32 -17 0
33 32 17 0
-33 -32 17 0
-33 32 -17 0
34 33 0
-34 -33 0
35 -31 0
35 -34 0
-35 31 34 0
37 -36 -28 0
37 36 28 0
-37 -36 28 0
-37 36 -28 0
38 37 0
-38 -37 0
39 -35 0
39 -38 0
-39 35 38 0
42 -40 -41 0
42 40 41 0
-42 -40 41 0
-42 40 -41 0
43 42 0
-43 -42 0
44 -39 0
44 -43 0
-44 39 43 0
47 -45 -46 0
47 45 46 0
-47 -45 46 0
-47 45 -46 0
48 47 0
-48 -47 0
49 -44 0
49 -48 0
-49 44 48 0
51 -50 -23 0
51 50 23 0
-51 -50 23 0
-51 50 -23 0
52 51 0
-52 -51 0
53 -49 0
53 -52 0
-53 49 52 0
-56 32 0
-56 55 0
56 -32 -55 0
57 -54 -56 0
57 54 56 0
-57 -54 56 0
-57 54 -56 0
58 57 0
-58 -57 0
59 -53 0
59 -58 0
-59 53 58 0
62 -60 -61 0
62 60 61 0
-62 -60 61 0
-62 60 -61 0
63 62 0
-63 -62 0
64 -59 0
64 -63 0
-64 59 63 0
-66 8 0
-66 9 0
66 -8 -9 0
67 -65 -66 0
67 65 66 0
-67 -65 66 0
-67 65 -66 0
68 -28 41 0
68 28 -41 0
-68 -28 -41 0
-68 28 41 0
69 -1 7 0
69 1 -7 0
-69 -1 -7 0
-69 1 7 0
70 -68 -69 0
70 68 69 0
-70 -68 69 0
-70 68 -69 0
-71 67 0
-71 70 0
71 -67 -70 0
72 -32 55 0
72 32 -55 0
-72 -32 -55 0
-72 32 55 0
73 -14 21 0
73 14 -21 0
-73 -14 -21 0
-73 14 21 0
74 -72 -73 0
74 72 73 0
-74 -72 73 0
-74 72 -73 0
-75 71 0
-75 74 0
75 -71 -74 0
-77 14 0
-77 21 0
77 -14 -21 0
-78 15 0
-78 16 0
78 -15 -16 0
79 -77 0
79 -78 0
-79 77 78 0
80 -76 -79 0
80 76 79 0
-80 -76 79 0
-80 76 -79 0
-81 75 0
-81 80 0
81 -75 -80 0
82 -64 0
82 -81 0
-82 64 81 0
82 0
